n = 9;
n2 = 14;
n3 = 14;
match12 = [|
88, 92, 88, 89, 88, 88, 88, 89, 0, 88, 89, 88, 91, 100|
4, 76, 64, 84, 84, 84, 84, 80, 88, 84, 80, 84, 84, 84|
52, 80, 6, 80, 90, 90, 90, 75, 85, 90, 75, 90, 70, 80|
84, 92, 75, 82, 94, 94, 94, 100, 91, 94, 100, 94, 0, 82|
84, 75, 79, 0, 88, 88, 88, 100, 89, 88, 100, 88, 82, 90|
76, 0, 79, 75, 94, 94, 94, 75, 92, 94, 75, 94, 92, 83|
84, 92, 83, 92, 10, 10, 10, 83, 92, 10, 83, 10, 79, 71|
84, 83, 79, 90, 82, 82, 82, 90, 100, 82, 90, 82, 82, 0|
80, 75, 79, 100, 82, 82, 82, 0, 89, 82, 0, 82, 100, 90|];
match23 = [|
84, 52, 80, 76, 80, 84, 80, 80, 11, 64, 84, 88, 80, 84|
92, 74, 75, 0, 86, 75, 77, 84, 78, 79, 92, 75, 75, 75|
75, 46, 79, 79, 88, 79, 79, 84, 67, 0, 83, 71, 79, 79|
82, 79, 100, 75, 86, 0, 82, 88, 85, 79, 90, 18, 100, 0|
94, 89, 82, 94, 82, 88, 82, 84, 81, 92, 14, 85, 82, 88|
94, 89, 82, 94, 82, 88, 82, 84, 81, 92, 14, 85, 82, 88|
94, 89, 82, 94, 82, 88, 82, 84, 81, 92, 14, 85, 82, 88|
100, 74, 0, 75, 82, 100, 82, 80, 81, 79, 70, 85, 0, 100|
91, 19, 89, 92, 86, 89, 95, 88, 89, 88, 90, 85, 89, 89|
94, 89, 82, 94, 82, 88, 82, 84, 81, 92, 14, 85, 82, 88|
100, 74, 0, 75, 82, 100, 82, 80, 81, 79, 70, 85, 0, 100|
94, 89, 82, 94, 82, 88, 82, 84, 81, 92, 14, 85, 82, 88|
0, 79, 100, 92, 86, 82, 91, 80, 85, 75, 100, 85, 100, 82|
82, 79, 90, 83, 18, 90, 18, 20, 85, 79, 90, 85, 90, 90|];
match31 = [|
91, 84, 70, 0, 82, 92, 79, 82, 100, 100, 100, 100, 100, 100|
19, 52, 35, 79, 79, 74, 75, 79, 74, 100, 100, 100, 100, 100|
89, 80, 75, 100, 100, 75, 83, 90, 0, 100, 100, 100, 100, 100|
92, 76, 80, 92, 75, 0, 92, 83, 75, 100, 100, 100, 100, 100|
86, 80, 86, 86, 86, 86, 88, 18, 82, 100, 100, 100, 100, 100|
89, 84, 80, 82, 0, 75, 92, 90, 100, 100, 100, 100, 100, 100|
95, 80, 77, 91, 82, 77, 79, 18, 82, 100, 100, 100, 100, 100|
88, 80, 80, 80, 88, 84, 80, 20, 80, 100, 100, 100, 100, 100|
89, 11, 56, 85, 85, 78, 81, 85, 81, 100, 100, 100, 100, 100|
88, 64, 6, 75, 79, 79, 83, 79, 79, 100, 100, 100, 100, 100|
90, 84, 80, 100, 90, 92, 19, 90, 70, 100, 100, 100, 100, 100|
85, 88, 85, 85, 18, 75, 83, 85, 85, 100, 100, 100, 100, 100|
89, 80, 75, 100, 100, 75, 83, 90, 0, 100, 100, 100, 100, 100|
89, 84, 80, 82, 0, 75, 92, 90, 100, 100, 100, 100, 100, 100|];
